db/data/9372733901027774576213661270825869.z3.out
-------------------
2500.129039890
